NAME : rbg010a.tw
TYPE : TSPTW
DIMENSION : 11
EDGE_WEIGHT_TYPE : EXPLICIT
EDGE_WEIGHT_FORMAT : FULL_MATRIX
EDGE_WEIGHT_SECTION
0 0 0 0 0 0 0 0 0 0 0 
71 0 85 85 85 96 85 85 97 85 77 
50 65 0 77 77 62 77 77 62 77 74 
64 74 88 0 88 80 88 88 82 88 87 
44 54 68 68 0 60 68 68 62 68 67 
51 75 51 51 51 0 51 51 80 51 65 
53 64 78 78 78 68 0 78 69 78 76 
51 67 69 69 69 75 69 0 75 69 63 
43 61 71 71 71 43 71 71 0 71 68 
53 64 78 78 78 68 78 78 69 0 80 
42 66 52 52 52 70 52 52 70 52 0 
TIME_WINDOW_SECTION
1 0 9396
2 0 865
3 399 1299
4 550 1450
5 685 1585
6 819 1719
7 1208 2108
8 1412 2312
9 1701 2330
10 2413 3313
11 3798 4698
DEPOT_SECTION
1 
-1
EOF
